     Program PWSCF v.6.6 starts on  2Dec2021 at 10:23:20

     R & G space division:  proc/nbgrp/npool/nimage =       4
     Fft bands division:     nmany     =       1
     Waiting for input...
     Reading input from standard input

     Current dimensions of program PWSCF are:
     Max number of different atomic species (ntypx) = 10
     Max number of k-points (npk) =  40000
     Max angular momentum in pseudopotentials (lmaxx) =  3
     file Ge.rel-pbe-dn-kjpaw_psl.0.2.2.UPF: wavefunction(s)  4P 4P 3D renormalized

     Subspace diagonalization in iterative solution of the eigenvalue problem:
     a serial algorithm will be used

     bravais-lattice index     =            4
     lattice parameter (alat)  =       7.6430  a.u.
     unit-cell volume          =    3093.2299 (a.u.)^3
     number of atoms/cell      =            2
     number of atomic types    =            1
     number of electrons       =        28.00
     number of Kohn-Sham states=           32
     kinetic-energy cutoff     =      90.0000  Ry
     charge density cutoff     =     360.0000  Ry
     convergence threshold     =      1.0E-06
     mixing beta               =       0.7000
     number of iterations used =            8  plain     mixing
     Exchange-correlation= SLA PW PBX PBC
                           (   1   4   3   4   0   0   0)
     Non magnetic calculation with spin-orbit

     celldm(1)=   7.643000  celldm(2)=   0.000000  celldm(3)=   8.000000
     celldm(4)=   0.000000  celldm(5)=   0.000000  celldm(6)=   0.000000

     crystal axes: (cart. coord. in units of alat)
               a(1) = (   1.000000   0.000000   0.000000 )
               a(2) = (  -0.500000   0.866025   0.000000 )
               a(3) = (   0.000000   0.000000   8.000000 )

     reciprocal axes: (cart. coord. in units 2 pi/alat)
               b(1) = (  1.000000  0.577350 -0.000000 )
               b(2) = (  0.000000  1.154701  0.000000 )
               b(3) = (  0.000000 -0.000000  0.125000 )

     PseudoPot. # 1 for Ge read from file:
     ./Ge.rel-pbe-dn-kjpaw_psl.0.2.2.UPF
     MD5 check sum: e4cf76e03bec641590337357991ef0a3
     Pseudo is Projector augmented-wave + core cor, Zval = 14.0
     Generated using "atomic" code by A. Dal Corso v.5.0.2 svn rev. 9415
     Shape of augmentation charge: PSQ
     Using radial grid of 1207 points, 10 beta functions with:
                l(1) =   0
                l(2) =   0
                l(3) =   1
                l(4) =   1
                l(5) =   1
                l(6) =   1
                l(7) =   2
                l(8) =   2
                l(9) =   2
               l(10) =   2
     Q(r) pseudized with 0 coefficients

     atomic species   valence    mass     pseudopotential
        Ge            14.00    72.64000     Ge( 1.00)

     12 Sym. Ops., with inversion, found

                                    s                        frac. trans.

      isym =  1     identity

 cryst.   s( 1) = (     1          0          0      )
                  (     0          1          0      )
                  (     0          0          1      )

 cart.    s( 1) = (  1.0000000  0.0000000  0.0000000 )
                  (  0.0000000  1.0000000  0.0000000 )
                  (  0.0000000  0.0000000  1.0000000 )

      isym =  2     180 deg rotation - cart. axis [1,0,0]

[...]

      isym =  3     120 deg rotation - cryst. axis [0,0,1]

[...]

      isym =  6     180 deg rotation - cryst. axis [1,1,0]

[...]

      isym =  7     inversion

[...]

      isym =  8     inv. 180 deg rotation - cart. axis [1,0,0]

[...]

      isym =  9     inv. 120 deg rotation - cryst. axis [0,0,1]

 cryst.   s( 9) = (     0         -1          0      )
                  (     1          1          0      )
                  (     0          0         -1      )

 cart.    s( 9) = (  0.5000000  0.8660254  0.0000000 )
                  ( -0.8660254  0.5000000  0.0000000 )
                  (  0.0000000  0.0000000 -1.0000000 )

[...]

 cryst.   s(10) = (     1          1          0      )
                  (    -1          0          0      )
                  (     0          0         -1      )

 cart.    s(10) = (  0.5000000 -0.8660254  0.0000000 )
                  (  0.8660254  0.5000000  0.0000000 )
                  (  0.0000000  0.0000000 -1.0000000 )

[...]

      isym = 12     inv. 180 deg rotation - cryst. axis [1,1,0]

 cryst.   s(12) = (     0         -1          0      )
                  (    -1          0          0      )
                  (     0          0          1      )

 cart.    s(12) = (  0.5000000 -0.8660254  0.0000000 )
                  ( -0.8660254 -0.5000000  0.0000000 )
                  (  0.0000000  0.0000000  1.0000000 )

     double point group D_3d (-3m)
     there are 12 classes and  6 irreducible representations
     the character table:

       E     -E    2C3   -2C3  3C2'  -3C2' i     -i    2S6   -2S6  3s_v  -3s_v

G_4+   2.00 -2.00  1.00 -1.00  0.00  0.00  2.00 -2.00  1.00 -1.00  0.00  0.00
G_5+   1.00 -1.00 -1.00  1.00  0.00  0.00  1.00 -1.00 -1.00  1.00  0.00  0.00
G_6+   1.00 -1.00 -1.00  1.00  0.00  0.00  1.00 -1.00 -1.00  1.00  0.00  0.00
G_4-   2.00 -2.00  1.00 -1.00  0.00  0.00 -2.00  2.00 -1.00  1.00  0.00  0.00
G_5-   1.00 -1.00 -1.00  1.00  0.00  0.00 -1.00  1.00  1.00 -1.00  0.00  0.00
G_6-   1.00 -1.00 -1.00  1.00  0.00  0.00 -1.00  1.00  1.00 -1.00  0.00  0.00

     imaginary part

       E     -E    2C3   -2C3  3C2'  -3C2' i     -i    2S6   -2S6  3s_v  -3s_v

G_4+   0.00  0.00  0.00  0.00  0.00  0.00  0.00  0.00  0.00  0.00  0.00  0.00
G_5+   0.00  0.00  0.00  0.00  1.00 -1.00  0.00  0.00  0.00  0.00  1.00 -1.00
G_6+   0.00  0.00  0.00  0.00 -1.00  1.00  0.00  0.00  0.00  0.00 -1.00  1.00
G_4-   0.00  0.00  0.00  0.00  0.00  0.00  0.00  0.00  0.00  0.00  0.00  0.00
G_5-   0.00  0.00  0.00  0.00  1.00 -1.00  0.00  0.00  0.00  0.00 -1.00  1.00
G_6-   0.00  0.00  0.00  0.00 -1.00  1.00  0.00  0.00  0.00  0.00  1.00 -1.00

     the symmetry operations in each class and the name of the first element:

     E             1
          identity
     -E           -1
          identity E
     2C3           3    4
          120 deg rotation - cryst. axis [0,0,1]
     -2C3         -3   -4
          120 deg rotation - cryst. axis [0,0,1] E
     3C2'          2   -5   -6
          180 deg rotation - cart. axis [1,0,0]
     3C2'          5    6   -2
          180 deg rotation - cryst. axis [0,1,0]
     i             7
          inversion
     -i           -7
          inversion E
     2S6           9   10
          inv. 120 deg rotation - cryst. axis [0,0,1]
     -2S6         -9  -10
          inv. 120 deg rotation - cryst. axis [0,0,1] E
     3s_v          8  -11  -12
          inv. 180 deg rotation - cart. axis [1,0,0]
     3s_v         11   12   -8
          inv. 180 deg rotation - cryst. axis [0,1,0]

   Cartesian axes

     site n.     atom                  positions (alat units)
         1           Ge  tau(   1) = (   0.0000000   0.5773503   0.0839713  )
         2           Ge  tau(   2) = (   0.5000000   0.2886751  -0.0839713  )

   Crystallographic axes

     site n.     atom                  positions (cryst. coord.)
         1           Ge  tau(   1) = (  0.3333334  0.6666667  0.0104964  )
         2           Ge  tau(   2) = (  0.6666666  0.3333333 -0.0104964  )

     number of k points=    19
                       cart. coord. in units 2pi/alat
        k(    1) = (   0.0000000   0.0000000   0.0000000), wk =   0.0069444
        k(    2) = (   0.0000000   0.0962250   0.0000000), wk =   0.0416667
        k(    3) = (   0.0000000   0.1924501   0.0000000), wk =   0.0416667
        k(    4) = (   0.0000000   0.2886751   0.0000000), wk =   0.0416667
        k(    5) = (   0.0000000   0.3849002   0.0000000), wk =   0.0416667
        k(    6) = (   0.0000000   0.4811252   0.0000000), wk =   0.0416667
        k(    7) = (   0.0000000  -0.5773503   0.0000000), wk =   0.0208333
        k(    8) = (   0.0833333   0.1443376   0.0000000), wk =   0.0416667
        k(    9) = (   0.0833333   0.2405626   0.0000000), wk =   0.0833333
        k(   10) = (   0.0833333   0.3367877   0.0000000), wk =   0.0833333
        k(   11) = (   0.0833333   0.4330127   0.0000000), wk =   0.0833333
        k(   12) = (   0.0833333   0.5292377   0.0000000), wk =   0.0833333
        k(   13) = (   0.1666667   0.2886751   0.0000000), wk =   0.0416667
        k(   14) = (   0.1666667   0.3849002   0.0000000), wk =   0.0833333
        k(   15) = (   0.1666667   0.4811252   0.0000000), wk =   0.0833333
        k(   16) = (   0.1666667   0.5773503   0.0000000), wk =   0.0416667
        k(   17) = (   0.2500000   0.4330127   0.0000000), wk =   0.0416667
        k(   18) = (   0.2500000   0.5292377   0.0000000), wk =   0.0833333
        k(   19) = (   0.3333333   0.5773503   0.0000000), wk =   0.0138889

                       cryst. coord.
        k(    1) = (   0.0000000   0.0000000   0.0000000), wk =   0.0069444
        k(    2) = (   0.0000000   0.0833333   0.0000000), wk =   0.0416667
        k(    3) = (   0.0000000   0.1666667   0.0000000), wk =   0.0416667
        k(    4) = (   0.0000000   0.2500000   0.0000000), wk =   0.0416667
        k(    5) = (   0.0000000   0.3333333   0.0000000), wk =   0.0416667
        k(    6) = (   0.0000000   0.4166667   0.0000000), wk =   0.0416667
        k(    7) = (   0.0000000  -0.5000000   0.0000000), wk =   0.0208333
        k(    8) = (   0.0833333   0.0833333   0.0000000), wk =   0.0416667
        k(    9) = (   0.0833333   0.1666667   0.0000000), wk =   0.0833333
        k(   10) = (   0.0833333   0.2500000   0.0000000), wk =   0.0833333
        k(   11) = (   0.0833333   0.3333333   0.0000000), wk =   0.0833333
        k(   12) = (   0.0833333   0.4166667   0.0000000), wk =   0.0833333
        k(   13) = (   0.1666667   0.1666667   0.0000000), wk =   0.0416667
        k(   14) = (   0.1666667   0.2500000   0.0000000), wk =   0.0833333
        k(   15) = (   0.1666667   0.3333333   0.0000000), wk =   0.0833333
        k(   16) = (   0.1666667   0.4166667   0.0000000), wk =   0.0416667
        k(   17) = (   0.2500000   0.2500000   0.0000000), wk =   0.0416667
        k(   18) = (   0.2500000   0.3333333   0.0000000), wk =   0.0833333
        k(   19) = (   0.3333333   0.3333333   0.0000000), wk =   0.0138889

     Check: negative core charge=   -0.000003

     Initial potential from superposition of free atoms

     starting charge   27.99860, renormalised to   28.00000

     negative rho (up, down):  1.571E-04 0.000E+00
     Starting wfcs are   36 randomized atomic wfcs
     Checking if some PAW data can be deallocated...

     Self-consistent Calculation

     iteration #  1     ecut=    90.00 Ry     beta= 0.70
     Davidson diagonalization with overlap
     ethr =  1.00E-02,  avg # of iterations =  2.9

     Threshold (ethr) on eigenvalues was too large:
     Diagonalizing with lowered threshold

     Davidson diagonalization with overlap
     ethr =  1.03E-04,  avg # of iterations =  3.4

     negative rho (up, down):  1.532E-04 0.000E+00

     total energy              =    -631.29931298 Ry
     estimated scf accuracy    <       0.03343858 Ry

[...]

     total energy              =    -631.30211889 Ry
     estimated scf accuracy    <       0.00000467 Ry

     iteration #  5     ecut=    90.00 Ry     beta= 0.70
     Davidson diagonalization with overlap
     ethr =  1.67E-08,  avg # of iterations =  2.2

[...]

     End of self-consistent calculation

          k = 0.0000 0.0000 0.0000 ( 44693 PWs)   bands (ev):

   -28.0112 -28.0112 -27.9978 -27.9978 -27.9875 -27.9875 -27.9227 -27.9227
   -27.4872 -27.4872 -27.4208 -27.4208 -27.3665 -27.3665 -27.3609 -27.3609
   -27.3264 -27.3264 -27.2629 -27.2629 -14.4787 -14.4787  -6.7366  -6.7366
    -3.8084  -3.8084  -3.6116  -3.6116  -2.7607  -2.7607  -0.9209  -0.9209

     occupation numbers
     1.0000   1.0000   1.0000   1.0000   1.0000   1.0000   1.0000   1.0000
     1.0000   1.0000   1.0000   1.0000   1.0000   1.0000   1.0000   1.0000
     1.0000   1.0000   1.0000   1.0000   1.0000   1.0000   1.0000   1.0000
     1.0000   1.0000   1.0000   1.0000   0.0000   0.0000   0.0000   0.0000

[...]

          k = 0.3333 0.5774 0.0000 ( 44424 PWs)   bands (ev):

   -28.0180 -28.0180 -28.0037 -28.0037 -27.9784 -27.9784 -27.9308 -27.9308
   -27.4601 -27.4601 -27.4225 -27.4225 -27.4116 -27.4116 -27.3502 -27.3502
   -27.3184 -27.3184 -27.2342 -27.2342 -11.4681 -11.4681 -11.4462 -11.4462
    -6.9458  -6.9458  -3.2313  -3.2313  -3.2071  -3.2071   1.1879   1.1880

     occupation numbers
     1.0000   1.0000   1.0000   1.0000   1.0000   1.0000   1.0000   1.0000
     1.0000   1.0000   1.0000   1.0000   1.0000   1.0000   1.0000   1.0000
     1.0000   1.0000   1.0000   1.0000   1.0000   1.0000   1.0000   1.0000
     1.0000   1.0000   1.0000   1.0000   0.0000   0.0000   0.0000   0.0000

     highest occupied, lowest unoccupied level (ev):    -3.2313   -3.2071

!    total energy              =    -631.30211975 Ry

     total all-electron energy =     -8396.328757 Ry
     estimated scf accuracy    <       0.00000033 Ry

     The total energy is the sum of the following terms:
     one-electron contribution =   -2021.45662597 Ry
     hartree contribution      =    1019.19427703 Ry
     xc contribution           =    -113.49666743 Ry
     ewald contribution        =     682.36823740 Ry
     one-center paw contrib.   =    -197.91134077 Ry
      -> PAW hartree energy AE =     166.57589514 Ry
      -> PAW hartree energy PS =    -162.82696110 Ry
      -> PAW xc energy AE      =    -159.11456807 Ry
      -> PAW xc energy PS      =      56.40996364 Ry
      -> total E_H with PAW    =    1022.94321107 Ry
      -> total E_XC with PAW   =    -216.20127187 Ry

     convergence has been achieved in   5 iterations

     negative rho (up, down):  1.519E-04 0.000E+00

     Forces acting on atoms (cartesian axes, Ry/au):

     atom    1 type  1   force =     0.00000000    0.00000000   -0.00084094
     atom    2 type  1   force =     0.00000000    0.00000000    0.00084094
     The non-local contrib.  to forces
     atom    1 type  1   force =     0.00000000    0.00000000   -0.30218872
     atom    2 type  1   force =     0.00000000    0.00000000    0.30218872
     The ionic contribution  to forces
     atom    1 type  1   force =    -0.00000000   -0.00000391   21.91156006
     atom    2 type  1   force =     0.00000000    0.00000391  -21.91156006
     The local contribution  to forces
     atom    1 type  1   force =     0.00000000   -0.00004520  -21.61412660
     atom    2 type  1   force =    -0.00000000    0.00005075   21.61412660
     The core correction contribution to forces
     atom    1 type  1   force =    -0.00000000   -0.00000614    0.00478557
     atom    2 type  1   force =    -0.00000000    0.00000689   -0.00478557
     The Hubbard contrib.    to forces
     atom    1 type  1   force =     0.00000000    0.00000000    0.00000000
     atom    2 type  1   force =     0.00000000    0.00000000    0.00000000
     The SCF correction term to forces
     atom    1 type  1   force =     0.00000000    0.00000009   -0.00087125
     atom    2 type  1   force =    -0.00000000   -0.00000010    0.00087125

     Total force =     0.001189     Total SCF correction =     0.001232
     SCF correction compared to forces is large: reduce conv_thr to get better values

     Computing stress (Cartesian axis) and pressure

     negative rho (up, down):  1.519E-04 0.000E+00
          total   stress  (Ry/bohr**3)                   (kbar)     P=        0.51
   0.00000344  -0.00000000   0.00000000            0.51       -0.00        0.00
  -0.00000000   0.00000344   0.00000000           -0.00        0.51        0.00
   0.00000000   0.00000000   0.00000350            0.00        0.00        0.51

     kinetic stress (kbar)   1030.51     -0.00      0.00
                               -0.00   1030.51     -0.00
                                0.00     -0.00   1048.48

     local   stress (kbar) -82706.14     -0.00      0.00
                               -0.00 -82706.14      0.00
                                0.00      0.00  84569.26

     nonloc. stress (kbar)    -94.51      0.00      0.00
                                0.00    -94.51     -0.00
                                0.00     -0.00   -111.10

     hartree stress (kbar)  43610.84     -0.00     -0.00
                               -0.00  43610.84      0.00
                               -0.00      0.00 -38751.75

     exc-cor stress (kbar)   1855.49      0.00     -0.00
                                0.00   1855.49     -0.00
                               -0.00     -0.00   1852.16

     corecor stress (kbar)  -2816.74     -0.00      0.00
                               -0.00  -2816.74      0.00
                                0.00      0.00  -2815.87

     ewald   stress (kbar)  39121.06     -0.00      0.00
                               -0.00  39121.06     -0.00
                                0.00     -0.00 -45790.66

     hubbard stress (kbar)      0.00      0.00      0.00
                                0.00      0.00      0.00
                                0.00      0.00      0.00

     DFT-D   stress (kbar)      0.00      0.00      0.00
                                0.00      0.00      0.00
                                0.00      0.00      0.00

     XDM     stress (kbar)      0.00      0.00      0.00
                                0.00      0.00      0.00
                                0.00      0.00      0.00

     dft-nl  stress (kbar)      0.00      0.00      0.00
                                0.00      0.00      0.00
                                0.00      0.00      0.00

     TS-vdW  stress (kbar)      0.00      0.00      0.00
                                0.00      0.00      0.00
                                0.00      0.00      0.00

     Writing output data file ./Germanene.save/

     General routines

     Parallel routines

     PAW routines

   This run was terminated on:  10:38:26   2Dec2021

   JOB DONE.